34 10
6 497
3 496
9 278
2 45
2 947
1 893
9 417
2 322
1 877
3 824
6 444
8 293
6 651
4 497
8 95
8 883
4 53
1 808
7 386
5 102
7 989
4 340
8 304
4 89
1 30
2 4
2 277
1 628
5 49
1 82
2 159
1 705
1 998
6 913
